p cnf 43 54
-38 25 0
-20 35 0
-25 -41 0
-21 24 0
-17 8 0
-10 28 0
-3 2 0
-6 2 0
-11 2 0
-34 33 0
-35 33 0
-33 34 35 0
-34 -35 0
-37 36 0
-38 36 0
-39 36 0
-36 37 38 39 0
-41 40 0
-42 40 0
-43 40 0
-40 41 42 43 0
-41 -42 0
-41 -43 0
-42 -43 0
-4 3 0
-3 4 0
-5 3 0
-7 6 0
-8 6 0
-12 11 0
-11 12 0
-13 11 0
-14 11 0
-11 14 0
-17 11 0
-20 19 0
-21 19 0
-19 20 21 0
-20 -21 0
-23 22 0
-24 22 0
-25 22 0
-22 23 24 25 0
-9 8 0
-8 9 0
-10 8 0
-15 14 0
-14 15 0
-16 14 0
-29 28 0
-30 28 0
-31 28 0
-32 28 0
-28 29 30 31 32 0

